\ LP format - for model browsing. Use MPS format to capture full model detail.
Minimize
  y_0 + y_1 + y_2 + y_3 + y_4 + y_5 + y_6 + y_7 + y_8 + y_9 + y_10 + y_11
   + y_12 + y_13 + y_14 + y_15 + y_16 + y_17 + y_18 + y_19
Subject To
 y_0_0: x_(0,_0) - y_0 <= 0
 y_0_1: x_(0,_1) - y_1 <= 0
 y_0_2: x_(0,_2) - y_2 <= 0
 y_0_3: x_(0,_3) - y_3 <= 0
 y_0_4: x_(0,_4) - y_4 <= 0
 y_0_5: x_(0,_5) - y_5 <= 0
 y_0_6: x_(0,_6) - y_6 <= 0
 y_0_7: x_(0,_7) - y_7 <= 0
 y_0_8: x_(0,_8) - y_8 <= 0
 y_0_9: x_(0,_9) - y_9 <= 0
 y_0_10: x_(0,_10) - y_10 <= 0
 y_0_11: x_(0,_11) - y_11 <= 0
 y_0_12: x_(0,_12) - y_12 <= 0
 y_0_13: x_(0,_13) - y_13 <= 0
 y_0_14: x_(0,_14) - y_14 <= 0
 y_0_15: x_(0,_15) - y_15 <= 0
 y_0_16: x_(0,_16) - y_16 <= 0
 y_0_17: x_(0,_17) - y_17 <= 0
 y_0_18: x_(0,_18) - y_18 <= 0
 y_0_19: x_(0,_19) - y_19 <= 0
 y_1_0: x_(1,_0) - y_0 <= 0
 y_1_1: x_(1,_1) - y_1 <= 0
 y_1_2: x_(1,_2) - y_2 <= 0
 y_1_3: x_(1,_3) - y_3 <= 0
 y_1_4: x_(1,_4) - y_4 <= 0
 y_1_5: x_(1,_5) - y_5 <= 0
 y_1_6: x_(1,_6) - y_6 <= 0
 y_1_7: x_(1,_7) - y_7 <= 0
 y_1_8: x_(1,_8) - y_8 <= 0
 y_1_9: x_(1,_9) - y_9 <= 0
 y_1_10: x_(1,_10) - y_10 <= 0
 y_1_11: x_(1,_11) - y_11 <= 0
 y_1_12: x_(1,_12) - y_12 <= 0
 y_1_13: x_(1,_13) - y_13 <= 0
 y_1_14: x_(1,_14) - y_14 <= 0
 y_1_15: x_(1,_15) - y_15 <= 0
 y_1_16: x_(1,_16) - y_16 <= 0
 y_1_17: x_(1,_17) - y_17 <= 0
 y_1_18: x_(1,_18) - y_18 <= 0
 y_1_19: x_(1,_19) - y_19 <= 0
 y_2_0: x_(2,_0) - y_0 <= 0
 y_2_1: x_(2,_1) - y_1 <= 0
 y_2_2: x_(2,_2) - y_2 <= 0
 y_2_3: x_(2,_3) - y_3 <= 0
 y_2_4: x_(2,_4) - y_4 <= 0
 y_2_5: x_(2,_5) - y_5 <= 0
 y_2_6: x_(2,_6) - y_6 <= 0
 y_2_7: x_(2,_7) - y_7 <= 0
 y_2_8: x_(2,_8) - y_8 <= 0
 y_2_9: x_(2,_9) - y_9 <= 0
 y_2_10: x_(2,_10) - y_10 <= 0
 y_2_11: x_(2,_11) - y_11 <= 0
 y_2_12: x_(2,_12) - y_12 <= 0
 y_2_13: x_(2,_13) - y_13 <= 0
 y_2_14: x_(2,_14) - y_14 <= 0
 y_2_15: x_(2,_15) - y_15 <= 0
 y_2_16: x_(2,_16) - y_16 <= 0
 y_2_17: x_(2,_17) - y_17 <= 0
 y_2_18: x_(2,_18) - y_18 <= 0
 y_2_19: x_(2,_19) - y_19 <= 0
 y_3_0: x_(3,_0) - y_0 <= 0
 y_3_1: x_(3,_1) - y_1 <= 0
 y_3_2: x_(3,_2) - y_2 <= 0
 y_3_3: x_(3,_3) - y_3 <= 0
 y_3_4: x_(3,_4) - y_4 <= 0
 y_3_5: x_(3,_5) - y_5 <= 0
 y_3_6: x_(3,_6) - y_6 <= 0
 y_3_7: x_(3,_7) - y_7 <= 0
 y_3_8: x_(3,_8) - y_8 <= 0
 y_3_9: x_(3,_9) - y_9 <= 0
 y_3_10: x_(3,_10) - y_10 <= 0
 y_3_11: x_(3,_11) - y_11 <= 0
 y_3_12: x_(3,_12) - y_12 <= 0
 y_3_13: x_(3,_13) - y_13 <= 0
 y_3_14: x_(3,_14) - y_14 <= 0
 y_3_15: x_(3,_15) - y_15 <= 0
 y_3_16: x_(3,_16) - y_16 <= 0
 y_3_17: x_(3,_17) - y_17 <= 0
 y_3_18: x_(3,_18) - y_18 <= 0
 y_3_19: x_(3,_19) - y_19 <= 0
 y_4_0: x_(4,_0) - y_0 <= 0
 y_4_1: x_(4,_1) - y_1 <= 0
 y_4_2: x_(4,_2) - y_2 <= 0
 y_4_3: x_(4,_3) - y_3 <= 0
 y_4_4: x_(4,_4) - y_4 <= 0
 y_4_5: x_(4,_5) - y_5 <= 0
 y_4_6: x_(4,_6) - y_6 <= 0
 y_4_7: x_(4,_7) - y_7 <= 0
 y_4_8: x_(4,_8) - y_8 <= 0
 y_4_9: x_(4,_9) - y_9 <= 0
 y_4_10: x_(4,_10) - y_10 <= 0
 y_4_11: x_(4,_11) - y_11 <= 0
 y_4_12: x_(4,_12) - y_12 <= 0
 y_4_13: x_(4,_13) - y_13 <= 0
 y_4_14: x_(4,_14) - y_14 <= 0
 y_4_15: x_(4,_15) - y_15 <= 0
 y_4_16: x_(4,_16) - y_16 <= 0
 y_4_17: x_(4,_17) - y_17 <= 0
 y_4_18: x_(4,_18) - y_18 <= 0
 y_4_19: x_(4,_19) - y_19 <= 0
 y_5_0: x_(5,_0) - y_0 <= 0
 y_5_1: x_(5,_1) - y_1 <= 0
 y_5_2: x_(5,_2) - y_2 <= 0
 y_5_3: x_(5,_3) - y_3 <= 0
 y_5_4: x_(5,_4) - y_4 <= 0
 y_5_5: x_(5,_5) - y_5 <= 0
 y_5_6: x_(5,_6) - y_6 <= 0
 y_5_7: x_(5,_7) - y_7 <= 0
 y_5_8: x_(5,_8) - y_8 <= 0
 y_5_9: x_(5,_9) - y_9 <= 0
 y_5_10: x_(5,_10) - y_10 <= 0
 y_5_11: x_(5,_11) - y_11 <= 0
 y_5_12: x_(5,_12) - y_12 <= 0
 y_5_13: x_(5,_13) - y_13 <= 0
 y_5_14: x_(5,_14) - y_14 <= 0
 y_5_15: x_(5,_15) - y_15 <= 0
 y_5_16: x_(5,_16) - y_16 <= 0
 y_5_17: x_(5,_17) - y_17 <= 0
 y_5_18: x_(5,_18) - y_18 <= 0
 y_5_19: x_(5,_19) - y_19 <= 0
 y_6_0: x_(6,_0) - y_0 <= 0
 y_6_1: x_(6,_1) - y_1 <= 0
 y_6_2: x_(6,_2) - y_2 <= 0
 y_6_3: x_(6,_3) - y_3 <= 0
 y_6_4: x_(6,_4) - y_4 <= 0
 y_6_5: x_(6,_5) - y_5 <= 0
 y_6_6: x_(6,_6) - y_6 <= 0
 y_6_7: x_(6,_7) - y_7 <= 0
 y_6_8: x_(6,_8) - y_8 <= 0
 y_6_9: x_(6,_9) - y_9 <= 0
 y_6_10: x_(6,_10) - y_10 <= 0
 y_6_11: x_(6,_11) - y_11 <= 0
 y_6_12: x_(6,_12) - y_12 <= 0
 y_6_13: x_(6,_13) - y_13 <= 0
 y_6_14: x_(6,_14) - y_14 <= 0
 y_6_15: x_(6,_15) - y_15 <= 0
 y_6_16: x_(6,_16) - y_16 <= 0
 y_6_17: x_(6,_17) - y_17 <= 0
 y_6_18: x_(6,_18) - y_18 <= 0
 y_6_19: x_(6,_19) - y_19 <= 0
 y_7_0: x_(7,_0) - y_0 <= 0
 y_7_1: x_(7,_1) - y_1 <= 0
 y_7_2: x_(7,_2) - y_2 <= 0
 y_7_3: x_(7,_3) - y_3 <= 0
 y_7_4: x_(7,_4) - y_4 <= 0
 y_7_5: x_(7,_5) - y_5 <= 0
 y_7_6: x_(7,_6) - y_6 <= 0
 y_7_7: x_(7,_7) - y_7 <= 0
 y_7_8: x_(7,_8) - y_8 <= 0
 y_7_9: x_(7,_9) - y_9 <= 0
 y_7_10: x_(7,_10) - y_10 <= 0
 y_7_11: x_(7,_11) - y_11 <= 0
 y_7_12: x_(7,_12) - y_12 <= 0
 y_7_13: x_(7,_13) - y_13 <= 0
 y_7_14: x_(7,_14) - y_14 <= 0
 y_7_15: x_(7,_15) - y_15 <= 0
 y_7_16: x_(7,_16) - y_16 <= 0
 y_7_17: x_(7,_17) - y_17 <= 0
 y_7_18: x_(7,_18) - y_18 <= 0
 y_7_19: x_(7,_19) - y_19 <= 0
 y_8_0: x_(8,_0) - y_0 <= 0
 y_8_1: x_(8,_1) - y_1 <= 0
 y_8_2: x_(8,_2) - y_2 <= 0
 y_8_3: x_(8,_3) - y_3 <= 0
 y_8_4: x_(8,_4) - y_4 <= 0
 y_8_5: x_(8,_5) - y_5 <= 0
 y_8_6: x_(8,_6) - y_6 <= 0
 y_8_7: x_(8,_7) - y_7 <= 0
 y_8_8: x_(8,_8) - y_8 <= 0
 y_8_9: x_(8,_9) - y_9 <= 0
 y_8_10: x_(8,_10) - y_10 <= 0
 y_8_11: x_(8,_11) - y_11 <= 0
 y_8_12: x_(8,_12) - y_12 <= 0
 y_8_13: x_(8,_13) - y_13 <= 0
 y_8_14: x_(8,_14) - y_14 <= 0
 y_8_15: x_(8,_15) - y_15 <= 0
 y_8_16: x_(8,_16) - y_16 <= 0
 y_8_17: x_(8,_17) - y_17 <= 0
 y_8_18: x_(8,_18) - y_18 <= 0
 y_8_19: x_(8,_19) - y_19 <= 0
 y_9_0: x_(9,_0) - y_0 <= 0
 y_9_1: x_(9,_1) - y_1 <= 0
 y_9_2: x_(9,_2) - y_2 <= 0
 y_9_3: x_(9,_3) - y_3 <= 0
 y_9_4: x_(9,_4) - y_4 <= 0
 y_9_5: x_(9,_5) - y_5 <= 0
 y_9_6: x_(9,_6) - y_6 <= 0
 y_9_7: x_(9,_7) - y_7 <= 0
 y_9_8: x_(9,_8) - y_8 <= 0
 y_9_9: x_(9,_9) - y_9 <= 0
 y_9_10: x_(9,_10) - y_10 <= 0
 y_9_11: x_(9,_11) - y_11 <= 0
 y_9_12: x_(9,_12) - y_12 <= 0
 y_9_13: x_(9,_13) - y_13 <= 0
 y_9_14: x_(9,_14) - y_14 <= 0
 y_9_15: x_(9,_15) - y_15 <= 0
 y_9_16: x_(9,_16) - y_16 <= 0
 y_9_17: x_(9,_17) - y_17 <= 0
 y_9_18: x_(9,_18) - y_18 <= 0
 y_9_19: x_(9,_19) - y_19 <= 0
 y_10_0: x_(10,_0) - y_0 <= 0
 y_10_1: x_(10,_1) - y_1 <= 0
 y_10_2: x_(10,_2) - y_2 <= 0
 y_10_3: x_(10,_3) - y_3 <= 0
 y_10_4: x_(10,_4) - y_4 <= 0
 y_10_5: x_(10,_5) - y_5 <= 0
 y_10_6: x_(10,_6) - y_6 <= 0
 y_10_7: x_(10,_7) - y_7 <= 0
 y_10_8: x_(10,_8) - y_8 <= 0
 y_10_9: x_(10,_9) - y_9 <= 0
 y_10_10: x_(10,_10) - y_10 <= 0
 y_10_11: x_(10,_11) - y_11 <= 0
 y_10_12: x_(10,_12) - y_12 <= 0
 y_10_13: x_(10,_13) - y_13 <= 0
 y_10_14: x_(10,_14) - y_14 <= 0
 y_10_15: x_(10,_15) - y_15 <= 0
 y_10_16: x_(10,_16) - y_16 <= 0
 y_10_17: x_(10,_17) - y_17 <= 0
 y_10_18: x_(10,_18) - y_18 <= 0
 y_10_19: x_(10,_19) - y_19 <= 0
 y_11_0: x_(11,_0) - y_0 <= 0
 y_11_1: x_(11,_1) - y_1 <= 0
 y_11_2: x_(11,_2) - y_2 <= 0
 y_11_3: x_(11,_3) - y_3 <= 0
 y_11_4: x_(11,_4) - y_4 <= 0
 y_11_5: x_(11,_5) - y_5 <= 0
 y_11_6: x_(11,_6) - y_6 <= 0
 y_11_7: x_(11,_7) - y_7 <= 0
 y_11_8: x_(11,_8) - y_8 <= 0
 y_11_9: x_(11,_9) - y_9 <= 0
 y_11_10: x_(11,_10) - y_10 <= 0
 y_11_11: x_(11,_11) - y_11 <= 0
 y_11_12: x_(11,_12) - y_12 <= 0
 y_11_13: x_(11,_13) - y_13 <= 0
 y_11_14: x_(11,_14) - y_14 <= 0
 y_11_15: x_(11,_15) - y_15 <= 0
 y_11_16: x_(11,_16) - y_16 <= 0
 y_11_17: x_(11,_17) - y_17 <= 0
 y_11_18: x_(11,_18) - y_18 <= 0
 y_11_19: x_(11,_19) - y_19 <= 0
 y_12_0: x_(12,_0) - y_0 <= 0
 y_12_1: x_(12,_1) - y_1 <= 0
 y_12_2: x_(12,_2) - y_2 <= 0
 y_12_3: x_(12,_3) - y_3 <= 0
 y_12_4: x_(12,_4) - y_4 <= 0
 y_12_5: x_(12,_5) - y_5 <= 0
 y_12_6: x_(12,_6) - y_6 <= 0
 y_12_7: x_(12,_7) - y_7 <= 0
 y_12_8: x_(12,_8) - y_8 <= 0
 y_12_9: x_(12,_9) - y_9 <= 0
 y_12_10: x_(12,_10) - y_10 <= 0
 y_12_11: x_(12,_11) - y_11 <= 0
 y_12_12: x_(12,_12) - y_12 <= 0
 y_12_13: x_(12,_13) - y_13 <= 0
 y_12_14: x_(12,_14) - y_14 <= 0
 y_12_15: x_(12,_15) - y_15 <= 0
 y_12_16: x_(12,_16) - y_16 <= 0
 y_12_17: x_(12,_17) - y_17 <= 0
 y_12_18: x_(12,_18) - y_18 <= 0
 y_12_19: x_(12,_19) - y_19 <= 0
 y_13_0: x_(13,_0) - y_0 <= 0
 y_13_1: x_(13,_1) - y_1 <= 0
 y_13_2: x_(13,_2) - y_2 <= 0
 y_13_3: x_(13,_3) - y_3 <= 0
 y_13_4: x_(13,_4) - y_4 <= 0
 y_13_5: x_(13,_5) - y_5 <= 0
 y_13_6: x_(13,_6) - y_6 <= 0
 y_13_7: x_(13,_7) - y_7 <= 0
 y_13_8: x_(13,_8) - y_8 <= 0
 y_13_9: x_(13,_9) - y_9 <= 0
 y_13_10: x_(13,_10) - y_10 <= 0
 y_13_11: x_(13,_11) - y_11 <= 0
 y_13_12: x_(13,_12) - y_12 <= 0
 y_13_13: x_(13,_13) - y_13 <= 0
 y_13_14: x_(13,_14) - y_14 <= 0
 y_13_15: x_(13,_15) - y_15 <= 0
 y_13_16: x_(13,_16) - y_16 <= 0
 y_13_17: x_(13,_17) - y_17 <= 0
 y_13_18: x_(13,_18) - y_18 <= 0
 y_13_19: x_(13,_19) - y_19 <= 0
 y_14_0: x_(14,_0) - y_0 <= 0
 y_14_1: x_(14,_1) - y_1 <= 0
 y_14_2: x_(14,_2) - y_2 <= 0
 y_14_3: x_(14,_3) - y_3 <= 0
 y_14_4: x_(14,_4) - y_4 <= 0
 y_14_5: x_(14,_5) - y_5 <= 0
 y_14_6: x_(14,_6) - y_6 <= 0
 y_14_7: x_(14,_7) - y_7 <= 0
 y_14_8: x_(14,_8) - y_8 <= 0
 y_14_9: x_(14,_9) - y_9 <= 0
 y_14_10: x_(14,_10) - y_10 <= 0
 y_14_11: x_(14,_11) - y_11 <= 0
 y_14_12: x_(14,_12) - y_12 <= 0
 y_14_13: x_(14,_13) - y_13 <= 0
 y_14_14: x_(14,_14) - y_14 <= 0
 y_14_15: x_(14,_15) - y_15 <= 0
 y_14_16: x_(14,_16) - y_16 <= 0
 y_14_17: x_(14,_17) - y_17 <= 0
 y_14_18: x_(14,_18) - y_18 <= 0
 y_14_19: x_(14,_19) - y_19 <= 0
 y_15_0: x_(15,_0) - y_0 <= 0
 y_15_1: x_(15,_1) - y_1 <= 0
 y_15_2: x_(15,_2) - y_2 <= 0
 y_15_3: x_(15,_3) - y_3 <= 0
 y_15_4: x_(15,_4) - y_4 <= 0
 y_15_5: x_(15,_5) - y_5 <= 0
 y_15_6: x_(15,_6) - y_6 <= 0
 y_15_7: x_(15,_7) - y_7 <= 0
 y_15_8: x_(15,_8) - y_8 <= 0
 y_15_9: x_(15,_9) - y_9 <= 0
 y_15_10: x_(15,_10) - y_10 <= 0
 y_15_11: x_(15,_11) - y_11 <= 0
 y_15_12: x_(15,_12) - y_12 <= 0
 y_15_13: x_(15,_13) - y_13 <= 0
 y_15_14: x_(15,_14) - y_14 <= 0
 y_15_15: x_(15,_15) - y_15 <= 0
 y_15_16: x_(15,_16) - y_16 <= 0
 y_15_17: x_(15,_17) - y_17 <= 0
 y_15_18: x_(15,_18) - y_18 <= 0
 y_15_19: x_(15,_19) - y_19 <= 0
 y_16_0: x_(16,_0) - y_0 <= 0
 y_16_1: x_(16,_1) - y_1 <= 0
 y_16_2: x_(16,_2) - y_2 <= 0
 y_16_3: x_(16,_3) - y_3 <= 0
 y_16_4: x_(16,_4) - y_4 <= 0
 y_16_5: x_(16,_5) - y_5 <= 0
 y_16_6: x_(16,_6) - y_6 <= 0
 y_16_7: x_(16,_7) - y_7 <= 0
 y_16_8: x_(16,_8) - y_8 <= 0
 y_16_9: x_(16,_9) - y_9 <= 0
 y_16_10: x_(16,_10) - y_10 <= 0
 y_16_11: x_(16,_11) - y_11 <= 0
 y_16_12: x_(16,_12) - y_12 <= 0
 y_16_13: x_(16,_13) - y_13 <= 0
 y_16_14: x_(16,_14) - y_14 <= 0
 y_16_15: x_(16,_15) - y_15 <= 0
 y_16_16: x_(16,_16) - y_16 <= 0
 y_16_17: x_(16,_17) - y_17 <= 0
 y_16_18: x_(16,_18) - y_18 <= 0
 y_16_19: x_(16,_19) - y_19 <= 0
 y_17_0: x_(17,_0) - y_0 <= 0
 y_17_1: x_(17,_1) - y_1 <= 0
 y_17_2: x_(17,_2) - y_2 <= 0
 y_17_3: x_(17,_3) - y_3 <= 0
 y_17_4: x_(17,_4) - y_4 <= 0
 y_17_5: x_(17,_5) - y_5 <= 0
 y_17_6: x_(17,_6) - y_6 <= 0
 y_17_7: x_(17,_7) - y_7 <= 0
 y_17_8: x_(17,_8) - y_8 <= 0
 y_17_9: x_(17,_9) - y_9 <= 0
 y_17_10: x_(17,_10) - y_10 <= 0
 y_17_11: x_(17,_11) - y_11 <= 0
 y_17_12: x_(17,_12) - y_12 <= 0
 y_17_13: x_(17,_13) - y_13 <= 0
 y_17_14: x_(17,_14) - y_14 <= 0
 y_17_15: x_(17,_15) - y_15 <= 0
 y_17_16: x_(17,_16) - y_16 <= 0
 y_17_17: x_(17,_17) - y_17 <= 0
 y_17_18: x_(17,_18) - y_18 <= 0
 y_17_19: x_(17,_19) - y_19 <= 0
 y_18_0: x_(18,_0) - y_0 <= 0
 y_18_1: x_(18,_1) - y_1 <= 0
 y_18_2: x_(18,_2) - y_2 <= 0
 y_18_3: x_(18,_3) - y_3 <= 0
 y_18_4: x_(18,_4) - y_4 <= 0
 y_18_5: x_(18,_5) - y_5 <= 0
 y_18_6: x_(18,_6) - y_6 <= 0
 y_18_7: x_(18,_7) - y_7 <= 0
 y_18_8: x_(18,_8) - y_8 <= 0
 y_18_9: x_(18,_9) - y_9 <= 0
 y_18_10: x_(18,_10) - y_10 <= 0
 y_18_11: x_(18,_11) - y_11 <= 0
 y_18_12: x_(18,_12) - y_12 <= 0
 y_18_13: x_(18,_13) - y_13 <= 0
 y_18_14: x_(18,_14) - y_14 <= 0
 y_18_15: x_(18,_15) - y_15 <= 0
 y_18_16: x_(18,_16) - y_16 <= 0
 y_18_17: x_(18,_17) - y_17 <= 0
 y_18_18: x_(18,_18) - y_18 <= 0
 y_18_19: x_(18,_19) - y_19 <= 0
 y_19_0: x_(19,_0) - y_0 <= 0
 y_19_1: x_(19,_1) - y_1 <= 0
 y_19_2: x_(19,_2) - y_2 <= 0
 y_19_3: x_(19,_3) - y_3 <= 0
 y_19_4: x_(19,_4) - y_4 <= 0
 y_19_5: x_(19,_5) - y_5 <= 0
 y_19_6: x_(19,_6) - y_6 <= 0
 y_19_7: x_(19,_7) - y_7 <= 0
 y_19_8: x_(19,_8) - y_8 <= 0
 y_19_9: x_(19,_9) - y_9 <= 0
 y_19_10: x_(19,_10) - y_10 <= 0
 y_19_11: x_(19,_11) - y_11 <= 0
 y_19_12: x_(19,_12) - y_12 <= 0
 y_19_13: x_(19,_13) - y_13 <= 0
 y_19_14: x_(19,_14) - y_14 <= 0
 y_19_15: x_(19,_15) - y_15 <= 0
 y_19_16: x_(19,_16) - y_16 <= 0
 y_19_17: x_(19,_17) - y_17 <= 0
 y_19_18: x_(19,_18) - y_18 <= 0
 y_19_19: x_(19,_19) - y_19 <= 0
 cover_0: x_(0,_0) + x_(0,_16) >= 1
 cover_1: x_(1,_1) + x_(1,_5) + x_(1,_12) + x_(1,_15) + x_(1,_19) >= 1
 cover_2: x_(2,_2) + x_(2,_3) + x_(2,_6) + x_(2,_11) + x_(2,_18) >= 1
 cover_3: x_(3,_2) + x_(3,_3) + x_(3,_4) + x_(3,_6) + x_(3,_11) + x_(3,_18)
   >= 1
 cover_4: x_(4,_3) + x_(4,_4) >= 1
 cover_5: x_(5,_1) + x_(5,_5) + x_(5,_12) + x_(5,_15) + x_(5,_19) >= 1
 cover_6: x_(6,_2) + x_(6,_3) + x_(6,_6) + x_(6,_11) >= 1
 cover_7: x_(7,_7) + x_(7,_9) >= 1
 cover_8: x_(8,_8) + x_(8,_10) + x_(8,_13) + x_(8,_14) >= 1
 cover_9: x_(9,_7) + x_(9,_9) + x_(9,_18) >= 1
 cover_10: x_(10,_8) + x_(10,_10) + x_(10,_13) + x_(10,_14) + x_(10,_17)
   >= 1
 cover_11: x_(11,_2) + x_(11,_3) + x_(11,_6) + x_(11,_11) >= 1
 cover_12: x_(12,_1) + x_(12,_5) + x_(12,_12) + x_(12,_15) + x_(12,_19)
   >= 1
 cover_13: x_(13,_8) + x_(13,_10) + x_(13,_13) + x_(13,_14) >= 1
 cover_14: x_(14,_8) + x_(14,_10) + x_(14,_13) + x_(14,_14) + x_(14,_17)
   >= 1
 cover_15: x_(15,_1) + x_(15,_5) + x_(15,_12) + x_(15,_15) + x_(15,_19)
   >= 1
 cover_16: x_(16,_0) + x_(16,_16) >= 1
 cover_17: x_(17,_10) + x_(17,_14) + x_(17,_17) >= 1
 cover_18: x_(18,_2) + x_(18,_3) + x_(18,_9) + x_(18,_18) >= 1
 cover_19: x_(19,_1) + x_(19,_5) + x_(19,_12) + x_(19,_15) + x_(19,_19)
   >= 1
Bounds
Binaries
 x_(0,_0) x_(0,_1) x_(0,_2) x_(0,_3) x_(0,_4) x_(0,_5) x_(0,_6) x_(0,_7)
 x_(0,_8) x_(0,_9) x_(0,_10) x_(0,_11) x_(0,_12) x_(0,_13) x_(0,_14)
 x_(0,_15) x_(0,_16) x_(0,_17) x_(0,_18) x_(0,_19) x_(1,_0) x_(1,_1)
 x_(1,_2) x_(1,_3) x_(1,_4) x_(1,_5) x_(1,_6) x_(1,_7) x_(1,_8) x_(1,_9)
 x_(1,_10) x_(1,_11) x_(1,_12) x_(1,_13) x_(1,_14) x_(1,_15) x_(1,_16)
 x_(1,_17) x_(1,_18) x_(1,_19) x_(2,_0) x_(2,_1) x_(2,_2) x_(2,_3) x_(2,_4)
 x_(2,_5) x_(2,_6) x_(2,_7) x_(2,_8) x_(2,_9) x_(2,_10) x_(2,_11) x_(2,_12)
 x_(2,_13) x_(2,_14) x_(2,_15) x_(2,_16) x_(2,_17) x_(2,_18) x_(2,_19)
 x_(3,_0) x_(3,_1) x_(3,_2) x_(3,_3) x_(3,_4) x_(3,_5) x_(3,_6) x_(3,_7)
 x_(3,_8) x_(3,_9) x_(3,_10) x_(3,_11) x_(3,_12) x_(3,_13) x_(3,_14)
 x_(3,_15) x_(3,_16) x_(3,_17) x_(3,_18) x_(3,_19) x_(4,_0) x_(4,_1)
 x_(4,_2) x_(4,_3) x_(4,_4) x_(4,_5) x_(4,_6) x_(4,_7) x_(4,_8) x_(4,_9)
 x_(4,_10) x_(4,_11) x_(4,_12) x_(4,_13) x_(4,_14) x_(4,_15) x_(4,_16)
 x_(4,_17) x_(4,_18) x_(4,_19) x_(5,_0) x_(5,_1) x_(5,_2) x_(5,_3) x_(5,_4)
 x_(5,_5) x_(5,_6) x_(5,_7) x_(5,_8) x_(5,_9) x_(5,_10) x_(5,_11) x_(5,_12)
 x_(5,_13) x_(5,_14) x_(5,_15) x_(5,_16) x_(5,_17) x_(5,_18) x_(5,_19)
 x_(6,_0) x_(6,_1) x_(6,_2) x_(6,_3) x_(6,_4) x_(6,_5) x_(6,_6) x_(6,_7)
 x_(6,_8) x_(6,_9) x_(6,_10) x_(6,_11) x_(6,_12) x_(6,_13) x_(6,_14)
 x_(6,_15) x_(6,_16) x_(6,_17) x_(6,_18) x_(6,_19) x_(7,_0) x_(7,_1)
 x_(7,_2) x_(7,_3) x_(7,_4) x_(7,_5) x_(7,_6) x_(7,_7) x_(7,_8) x_(7,_9)
 x_(7,_10) x_(7,_11) x_(7,_12) x_(7,_13) x_(7,_14) x_(7,_15) x_(7,_16)
 x_(7,_17) x_(7,_18) x_(7,_19) x_(8,_0) x_(8,_1) x_(8,_2) x_(8,_3) x_(8,_4)
 x_(8,_5) x_(8,_6) x_(8,_7) x_(8,_8) x_(8,_9) x_(8,_10) x_(8,_11) x_(8,_12)
 x_(8,_13) x_(8,_14) x_(8,_15) x_(8,_16) x_(8,_17) x_(8,_18) x_(8,_19)
 x_(9,_0) x_(9,_1) x_(9,_2) x_(9,_3) x_(9,_4) x_(9,_5) x_(9,_6) x_(9,_7)
 x_(9,_8) x_(9,_9) x_(9,_10) x_(9,_11) x_(9,_12) x_(9,_13) x_(9,_14)
 x_(9,_15) x_(9,_16) x_(9,_17) x_(9,_18) x_(9,_19) x_(10,_0) x_(10,_1)
 x_(10,_2) x_(10,_3) x_(10,_4) x_(10,_5) x_(10,_6) x_(10,_7) x_(10,_8)
 x_(10,_9) x_(10,_10) x_(10,_11) x_(10,_12) x_(10,_13) x_(10,_14)
 x_(10,_15) x_(10,_16) x_(10,_17) x_(10,_18) x_(10,_19) x_(11,_0) x_(11,_1)
 x_(11,_2) x_(11,_3) x_(11,_4) x_(11,_5) x_(11,_6) x_(11,_7) x_(11,_8)
 x_(11,_9) x_(11,_10) x_(11,_11) x_(11,_12) x_(11,_13) x_(11,_14)
 x_(11,_15) x_(11,_16) x_(11,_17) x_(11,_18) x_(11,_19) x_(12,_0) x_(12,_1)
 x_(12,_2) x_(12,_3) x_(12,_4) x_(12,_5) x_(12,_6) x_(12,_7) x_(12,_8)
 x_(12,_9) x_(12,_10) x_(12,_11) x_(12,_12) x_(12,_13) x_(12,_14)
 x_(12,_15) x_(12,_16) x_(12,_17) x_(12,_18) x_(12,_19) x_(13,_0) x_(13,_1)
 x_(13,_2) x_(13,_3) x_(13,_4) x_(13,_5) x_(13,_6) x_(13,_7) x_(13,_8)
 x_(13,_9) x_(13,_10) x_(13,_11) x_(13,_12) x_(13,_13) x_(13,_14)
 x_(13,_15) x_(13,_16) x_(13,_17) x_(13,_18) x_(13,_19) x_(14,_0) x_(14,_1)
 x_(14,_2) x_(14,_3) x_(14,_4) x_(14,_5) x_(14,_6) x_(14,_7) x_(14,_8)
 x_(14,_9) x_(14,_10) x_(14,_11) x_(14,_12) x_(14,_13) x_(14,_14)
 x_(14,_15) x_(14,_16) x_(14,_17) x_(14,_18) x_(14,_19) x_(15,_0) x_(15,_1)
 x_(15,_2) x_(15,_3) x_(15,_4) x_(15,_5) x_(15,_6) x_(15,_7) x_(15,_8)
 x_(15,_9) x_(15,_10) x_(15,_11) x_(15,_12) x_(15,_13) x_(15,_14)
 x_(15,_15) x_(15,_16) x_(15,_17) x_(15,_18) x_(15,_19) x_(16,_0) x_(16,_1)
 x_(16,_2) x_(16,_3) x_(16,_4) x_(16,_5) x_(16,_6) x_(16,_7) x_(16,_8)
 x_(16,_9) x_(16,_10) x_(16,_11) x_(16,_12) x_(16,_13) x_(16,_14)
 x_(16,_15) x_(16,_16) x_(16,_17) x_(16,_18) x_(16,_19) x_(17,_0) x_(17,_1)
 x_(17,_2) x_(17,_3) x_(17,_4) x_(17,_5) x_(17,_6) x_(17,_7) x_(17,_8)
 x_(17,_9) x_(17,_10) x_(17,_11) x_(17,_12) x_(17,_13) x_(17,_14)
 x_(17,_15) x_(17,_16) x_(17,_17) x_(17,_18) x_(17,_19) x_(18,_0) x_(18,_1)
 x_(18,_2) x_(18,_3) x_(18,_4) x_(18,_5) x_(18,_6) x_(18,_7) x_(18,_8)
 x_(18,_9) x_(18,_10) x_(18,_11) x_(18,_12) x_(18,_13) x_(18,_14)
 x_(18,_15) x_(18,_16) x_(18,_17) x_(18,_18) x_(18,_19) x_(19,_0) x_(19,_1)
 x_(19,_2) x_(19,_3) x_(19,_4) x_(19,_5) x_(19,_6) x_(19,_7) x_(19,_8)
 x_(19,_9) x_(19,_10) x_(19,_11) x_(19,_12) x_(19,_13) x_(19,_14)
 x_(19,_15) x_(19,_16) x_(19,_17) x_(19,_18) x_(19,_19) y_0 y_1 y_2 y_3 y_4
 y_5 y_6 y_7 y_8 y_9 y_10 y_11 y_12 y_13 y_14 y_15 y_16 y_17 y_18 y_19
End
